Read MPS format model from file dat/rmp/DER_96_2048_30.mps
Reading time = 0.29 seconds
: 2144 rows, 10016 columns, 847420 nonzeros
Gurobi Optimizer version 9.0.0 build v9.0.0rc2 (linux64)
Optimize a model with 2144 rows, 10016 columns and 847420 nonzeros
Model fingerprint: 0xe74f26dc
Coefficient statistics:
  Matrix range     [1e-04, 1e+01]
  Objective range  [8e-01, 1e+03]
  Bounds range     [1e+04, 1e+04]
  RHS range        [1e+00, 1e+00]
Ordering time: 0.00s

Barrier statistics:
 AA' NZ     : 1.902e+05
 Factor NZ  : 2.151e+05 (roughly 7 MBytes of memory)
 Factor Ops : 2.283e+07 (less than 1 second per iteration)
 Threads    : 1

                  Objective                Residual
Iter       Primal          Dual         Primal    Dual     Compl     Time
   0   7.65896431e+08 -1.57186862e+08  1.83e+06 2.53e-02  5.66e+05     0s
   1   3.19423334e+07 -2.49035973e+07  6.53e+04 3.64e-12  2.24e+04     0s
   2   2.99250648e+06 -6.34676309e+06  5.53e+03 3.64e-12  2.38e+03     0s
   3   8.51202181e+04 -2.47162981e+06  1.10e+02 1.68e-11  2.72e+02     0s
   4   1.51463230e+04 -1.48064091e+04  3.23e-11 3.64e-12  2.96e+00     0s
   5   1.45667573e+04  1.25073613e+04  6.22e-11 5.46e-12  2.04e-01     1s
   6   1.44548335e+04  1.38220580e+04  3.48e-11 1.82e-12  6.26e-02     1s
   7   1.43738587e+04  1.41719188e+04  2.12e-11 3.64e-12  2.00e-02     1s
   8   1.43440575e+04  1.42345228e+04  1.44e-11 1.82e-12  1.08e-02     1s
   9   1.43105089e+04  1.42544136e+04  6.15e-11 1.82e-12  5.55e-03     1s
  10   1.42985343e+04  1.42644567e+04  6.30e-11 1.82e-12  3.37e-03     1s
  11   1.42890686e+04  1.42717772e+04  1.18e-10 3.64e-12  1.71e-03     1s
  12   1.42848533e+04  1.42742458e+04  1.75e-10 1.82e-12  1.05e-03     1s
  13   1.42831013e+04  1.42747735e+04  1.88e-10 1.82e-12  8.24e-04     1s
  14   1.42791458e+04  1.42763636e+04  6.18e-10 3.64e-12  2.75e-04     1s
  15   1.42785451e+04  1.42766594e+04  5.60e-10 1.82e-12  1.86e-04     1s
  16   1.42778554e+04  1.42768963e+04  6.17e-10 3.64e-12  9.48e-05     1s
  17   1.42772880e+04  1.42770411e+04  1.22e-09 3.64e-12  2.44e-05     1s
  18   1.42771936e+04  1.42770655e+04  1.18e-09 3.64e-12  1.27e-05     1s
  19   1.42770985e+04  1.42770777e+04  3.92e-09 5.46e-12  2.05e-06     1s
  20   1.42770887e+04  1.42770791e+04  1.26e-08 3.64e-12  9.44e-07     1s
  21   1.42770809e+04  1.42770795e+04  2.80e-08 5.46e-12  1.36e-07     2s
  22   1.42770797e+04  1.42770797e+04  1.12e-08 3.64e-12  1.54e-09     2s

Barrier solved model in 22 iterations and 1.60 seconds
Optimal objective 1.42770797e+04

Solve time: 1.603629423
Barrier iterations: 22
